LatticeConstant 1.0 Ang
%block LatticeVectors
 15.94965000 0.00000000 0.00000000
 0.00000000 17.22084000 0.00000000
 0.00000000 0.00000000 13.74555000
%endblock LatticeVectors

NumberOfAtoms 23
AtomicCoordinatesFormat Ang
%block AtomicCoordinatesAndAtomicSpecies
 -0.08785000 -0.00100000  0.44889000 1 #  1: C
 -1.41714000  0.09629000  0.53709000 1 #  2: C
 -2.03948000  1.37162000  0.64927000 1 #  3: C
 -1.33670000  2.46049000  0.59422000 2 #  4: N
 -0.00454000  2.30902000  0.36777000 1 #  5: C
  0.41596000  1.15850000 -0.05243000 2 #  6: N
 -3.42443000  1.22361000  0.85602000 2 #  7: N
 -2.42684000 -0.87785000  0.67180000 2 #  8: N
 -3.71052000 -0.20956000  0.86081000 1 #  9: C
  0.39896000 -1.03088000  0.81945000 3 # 10: O
  0.72576000  3.24292000  0.56246000 3 # 11: O
 -1.93559000  3.77454000  0.78465000 1 # 12: C
  1.26905000  1.10227000 -1.22816000 1 # 13: C
 -2.24727000 -2.31058000  0.64151000 1 # 14: C
 -1.57508000 -2.62479000  1.46684000 4 # 15: H
 -3.22414000 -2.82381000  0.76786000 4 # 16: H
 -1.80734000 -2.61177000 -0.33221000 4 # 17: H
 -1.47478000  4.27559000  1.66266000 4 # 18: H
 -1.76632000  4.39703000 -0.11974000 4 # 19: H
 -3.03105000  3.71698000  0.96149000 4 # 20: H
  1.48166000  0.05246000 -1.52932000 4 # 21: H
  0.77473000  1.61335000 -2.08289000 4 # 22: H
  2.23913000  1.60140000 -1.01659000 4 # 23: H
%endblock AtomicCoordinatesAndAtomicSpecies

NumberOfSpecies 4
%block ChemicalSpeciesLabel
 1 6 C
 2 7 N
 3 8 O
 4 1 H
%endblock ChemicalSpeciesLabel
